HUN,8,6,84
2,26,1,26,0,30,3,28,4,26,5,26
0,21,4,30,1,28,5,27,2,21,3,21
3,28,1,22,4,22,0,24,5,22,2,23
1,27,2,21,5,25,4,29,3,24,0,21
3,21,1,30,0,27,4,24,5,25,2,24
5,28,0,25,4,28,3,27,1,26,2,27
3,21,0,30,4,21,5,25,2,24,1,26
5,29,3,30,0,28,1,28,4,25,2,29
